(set-logic ALL)
(declare-fun var0 () String)
(assert (str.in_re var0 (re.++ (re.union (re.+ (str.to_re "00")) (re.+ (str.to_re "1"))) (re.++ (re.union (re.+ (str.to_re "22")) (re.+ (str.to_re "33"))) (re.++ (re.+ (re.* (str.to_re "4"))) (re.++ (re.* (re.union (str.to_re "55") (str.to_re "66"))) (re.++ (re.+ (re.+ (str.to_re "777"))) (re.++ (re.union (re.* (str.to_re "88")) (re.* (str.to_re "999"))) (re.++ (re.* (re.* (str.to_re "a"))) (re.++ (re.* (re.* (str.to_re "b"))) (re.++ (re.+ (re.+ (str.to_re "c"))) (re.++ (re.union (re.union (str.to_re "dd") (str.to_re "e")) (re.union (str.to_re "ff") (str.to_re "ggg"))) (re.++ (re.* (re.+ (str.to_re "h"))) (re.++ (re.union (re.+ (str.to_re "i")) (re.+ (str.to_re "jj"))) (re.++ (re.+ (re.* (str.to_re "kk"))) (re.++ (re.union (re.+ (str.to_re "l")) (re.+ (str.to_re "mm"))) (re.++ (re.union (re.union (str.to_re "n") (str.to_re "o")) (re.union (str.to_re "ppp") (str.to_re "qqq"))) (re.++ (re.+ (re.+ (str.to_re "rrr"))) (re.++ (re.* (re.+ (str.to_re "s"))) (re.++ (re.union (re.* (str.to_re "t")) (re.* (str.to_re "uuu"))) (re.++ (re.union (re.* (str.to_re "vv")) (re.* (str.to_re "www"))) (re.++ (re.union (re.* (str.to_re "xxx")) (re.* (str.to_re "yyy"))) (re.++ (re.* (re.union (str.to_re "zz") (str.to_re "AA"))) (re.union (re.union (str.to_re "BB") (str.to_re "C")) (re.union (str.to_re "D") (str.to_re "E"))))))))))))))))))))))))))
(check-sat)